========================================================== 
File name: C:\DEGR\assets\definitions\MSRCPSP_Gen\200_20_64_5_A.def
Creation date: Wed May 03 10:45:58 CEST 2023
Website: http://imopse.ii.pwr.edu.pl/ 
Reference: 
Myszkowski P. B., Skowronski M. E., Olech L., Oslizlo K., 
Hybrid Ant Colony Optimization in solving Multi-Skill Resource-Constrained Project Scheduling Problem, 
Soft Computing, DOI: DOI 10.1007/s00500-014-1455-x 
========================================================== 
General characteristics: 
Tasks: 200
Resources: 20
Precedence relations: 64
Number of skill types: 5
========================================================== 
ResourceID 	 Salary 	 Skills 
1	 	 	43.1	 	 Q0: 0 	 
2	 	 	86.7	 	 Q0: 0 	  Q2: 3 	 
3	 	 	65.5	 	 Q4: 3 	  Q0: 0 	  Q2: 2 	 
4	 	 	51.1	 	 Q2: 3 	  Q4: 2 	  Q1: 0 	  Q0: 3 	 
5	 	 	30.2	 	 Q3: 1 	 
6	 	 	32.5	 	 Q1: 1 	 
7	 	 	14.1	 	 Q0: 2 	  Q1: 1 	  Q4: 0 	 
8	 	 	17.7	 	 Q4: 3 	 
9	 	 	34.5	 	 Q1: 2 	  Q0: 3 	  Q2: 0 	 
10	 	 	45.9	 	 Q2: 3 	  Q4: 1 	  Q0: 0 	 
11	 	 	86.6	 	 Q2: 0 	 
12	 	 	33.0	 	 Q0: 2 	 
13	 	 	93.5	 	 Q0: 2 	  Q1: 0 	  Q4: 1 	 
14	 	 	40.5	 	 Q3: 3 	  Q2: 0 	  Q0: 3 	 
15	 	 	82.7	 	 Q3: 1 	  Q2: 2 	  Q1: 2 	  Q0: 0 	 
16	 	 	89.4	 	 Q2: 2 	  Q3: 0 	 
17	 	 	39.5	 	 Q4: 2 	  Q2: 2 	 
18	 	 	34.3	 	 Q1: 2 	 
19	 	 	48.9	 	 Q1: 3 	  Q3: 1 	 
20	 	 	27.4	 	 Q0: 1 	 
========================================================== 
TaskID 	 Duration 	 Skill 	 Predecessor IDs 
1	27	Q2:	3
2	34	Q3:	0
3	20	Q2:	2
4	11	Q4:	2
5	35	Q4:	0
6	11	Q2:	0
7	13	Q3:	3
8	21	Q3:	3
9	37	Q3:	3
10	36	Q1:	2
11	34	Q3:	0
12	18	Q0:	3
13	29	Q4:	1
14	24	Q4:	0
15	29	Q4:	3
16	22	Q4:	1
17	21	Q4:	1
18	36	Q3:	3
19	39	Q4:	0	18
20	28	Q2:	0
21	35	Q1:	0
22	18	Q0:	1
23	24	Q1:	1
24	39	Q2:	0
25	14	Q1:	2
26	13	Q4:	0
27	30	Q3:	1
28	9	Q0:	0
29	38	Q2:	0
30	9	Q0:	2
31	17	Q3:	1
32	16	Q4:	0
33	9	Q0:	3	10
34	20	Q1:	0
35	28	Q1:	2
36	39	Q4:	2
37	35	Q1:	1
38	17	Q0:	2
39	10	Q4:	0
40	34	Q2:	2
41	15	Q2:	2
42	22	Q3:	0
43	32	Q0:	2
44	19	Q1:	1
45	21	Q0:	1
46	21	Q0:	3	20
47	31	Q3:	1
48	34	Q3:	3
49	28	Q3:	3
50	24	Q2:	0
51	34	Q4:	3
52	30	Q1:	0
53	15	Q2:	3
54	30	Q3:	3	50
55	32	Q4:	1	13
56	15	Q2:	0
57	27	Q4:	3
58	16	Q4:	1
59	37	Q1:	0
60	15	Q4:	0
61	40	Q4:	2	23
62	35	Q3:	1	61
63	12	Q3:	0
64	34	Q1:	2	52
65	40	Q3:	1
66	10	Q1:	0
67	38	Q4:	0
68	10	Q4:	3
69	17	Q3:	1
70	32	Q4:	0
71	25	Q3:	3	51
72	25	Q2:	2
73	11	Q1:	0
74	23	Q4:	3
75	21	Q2:	2
76	22	Q1:	0
77	20	Q4:	0
78	31	Q2:	2
79	26	Q3:	1
80	22	Q4:	3
81	31	Q1:	1
82	36	Q1:	1
83	9	Q1:	2
84	22	Q4:	1
85	27	Q0:	0
86	9	Q1:	2
87	14	Q2:	2
88	12	Q1:	1
89	20	Q3:	1	51
90	40	Q0:	2
91	15	Q3:	0	47	52
92	26	Q2:	2
93	12	Q1:	0	34
94	14	Q4:	3
95	36	Q4:	2
96	34	Q2:	2
97	12	Q0:	3
98	34	Q1:	2	38
99	14	Q3:	0
100	12	Q2:	2	84
101	21	Q3:	3
102	19	Q1:	3
103	20	Q4:	0
104	40	Q1:	0
105	15	Q3:	3
106	27	Q3:	1
107	17	Q1:	2	78
108	28	Q1:	0
109	28	Q4:	2
110	30	Q1:	2
111	23	Q0:	0	16
112	27	Q2:	3
113	36	Q1:	0
114	39	Q2:	2
115	38	Q4:	2
116	39	Q4:	0	6
117	24	Q1:	0
118	40	Q4:	1
119	33	Q1:	3
120	38	Q4:	2	38
121	14	Q0:	0	102
122	38	Q2:	0
123	13	Q3:	0
124	29	Q4:	3
125	10	Q1:	3
126	24	Q1:	1
127	12	Q2:	0
128	14	Q1:	3	57
129	13	Q2:	2
130	31	Q0:	0	50
131	30	Q3:	0
132	27	Q4:	3
133	26	Q0:	0
134	21	Q3:	0
135	40	Q3:	0
136	31	Q1:	0
137	32	Q3:	0
138	31	Q1:	0
139	32	Q2:	3
140	12	Q0:	0
141	37	Q0:	3
142	24	Q1:	1	106
143	15	Q4:	0	9
144	33	Q0:	3
145	10	Q2:	2
146	30	Q1:	3	81	68
147	33	Q0:	2	24
148	16	Q2:	2	45
149	15	Q1:	1	74	130
150	40	Q4:	2
151	11	Q4:	0
152	26	Q1:	1
153	37	Q0:	0
154	13	Q4:	3	66
155	10	Q1:	2
156	22	Q0:	3	83
157	26	Q2:	2
158	36	Q4:	3	147	72
159	16	Q1:	1	88	136
160	38	Q1:	3
161	10	Q0:	1	2
162	30	Q0:	2	118
163	36	Q3:	1	27
164	18	Q1:	1	133
165	32	Q1:	2
166	19	Q0:	2	65
167	40	Q3:	0	143	141
168	20	Q1:	1	95
169	16	Q0:	3
170	26	Q2:	3	151
171	18	Q0:	3	30
172	39	Q1:	1
173	31	Q1:	1	46
174	39	Q1:	3	60
175	14	Q2:	2
176	16	Q0:	3
177	31	Q0:	1
178	30	Q4:	0	28
179	28	Q2:	0
180	16	Q4:	0	127
181	15	Q4:	2	11	105
182	37	Q3:	0	52	74
183	33	Q4:	1
184	40	Q1:	2	157
185	26	Q1:	2
186	11	Q2:	2
187	14	Q0:	1	24
188	20	Q3:	1
189	26	Q1:	2
190	12	Q1:	1
191	20	Q0:	2	162
192	21	Q1:	3	77
193	32	Q1:	0	160
194	21	Q0:	2
195	11	Q4:	3	167
196	25	Q0:	2	187	161
197	24	Q1:	3	22
198	26	Q0:	0
199	27	Q0:	2	34
200	27	Q2:	2
========================================================== 